152 113525
1 16 2 15 3 14 29 30 31 48 49 50 76 74 75 73 51 47 46 52 53 72 71 70 69 54 45 38 4 13 27 28 56 68 67 55 44 24 25 26 5 12 6 39 23 22 11 7 20 21 19 10 8 9 17 18 40 43 57 65 66 81 100 89 80 99 98 97 123 127 128 151 150 152 126 125 124 95 94 93 77 92 78 116 115 96 91 79 90 114 113 117 140 139 141 142 143 138 137 118 119 136 135 144 146 145 134 133 120 121 132 131 147 149 148 130 129 122 101 102 112 111 104 87 83 105 106 107 86 110 109 108 85 84 41 60 61 62 63 64 59 42 58 82 103 88 32 33 37 34 36 35 
